NAME : rnd43_50.tsp.tsp.optbc.tour
TYPE : TOUR
DIMENSION : 50
TOUR_SECTION
1
50
21
16
25
24
13
30
29
7
33
40
20
27
12
8
31
22
45
15
48
49
28
36
5
26
14
41
42
19
38
3
18
47
43
11
32
4
35
6
10
2
46
17
44
34
39
37
9
23
-1